90
2411
5
20
34
73
25
82
0 2
0 3
0 6
0 7
0 8
0 10
0 12
0 17
0 18
0 21
0 22
0 23
0 24
0 25
0 26
0 27
0 28
0 31
0 37
0 38
0 39
0 40
0 41
0 43
0 44
0 45
0 46
0 47
0 50
0 51
0 53
0 54
0 55
0 56
0 60
0 62
0 64
0 66
0 69
0 71
0 72
0 73
0 74
0 75
0 76
0 79
0 80
0 81
0 82
0 87
1 2
1 3
1 4
1 6
1 8
1 9
1 10
1 12
1 13
1 14
1 15
1 16
1 19
1 20
1 21
1 22
1 28
1 33
1 34
1 35
1 36
1 37
1 40
1 41
1 42
1 44
1 45
1 46
1 47
1 48
1 51
1 53
1 55
1 57
1 58
1 59
1 61
1 64
1 65
1 66
1 69
1 71
1 73
1 76
1 78
1 79
1 84
1 85
1 87
1 88
1 89
2 3
2 4
2 6
2 9
2 13
2 15
2 16
2 17
2 18
2 20
2 21
2 23
2 25
2 26
2 27
2 28
2 29
2 30
2 31
2 32
2 33
2 34
2 36
2 39
2 41
2 42
2 43
2 44
2 47
2 49
2 50
2 51
2 53
2 56
2 57
2 58
2 60
2 61
2 63
2 65
2 67
2 68
2 69
2 70
2 71
2 75
2 76
2 77
2 78
2 80
2 81
2 82
2 83
3 5
3 6
3 8
3 9
3 11
3 12
3 13
3 14
3 15
3 16
3 18
3 21
3 22
3 23
3 25
3 27
3 29
3 30
3 31
3 32
3 34
3 35
3 36
3 37
3 39
3 40
3 42
3 43
3 45
3 46
3 47
3 53
3 55
3 59
3 60
3 61
3 63
3 64
3 67
3 68
3 69
3 71
3 72
3 73
3 74
3 75
3 78
3 79
3 81
3 83
3 84
3 86
3 88
4 5
4 6
4 7
4 8
4 9
4 10
4 13
4 14
4 15
4 16
4 17
4 18
4 20
4 21
4 25
4 27
4 28
4 29
4 30
4 31
4 34
4 35
4 36
4 40
4 41
4 42
4 43
4 44
4 49
4 53
4 54
4 55
4 56
4 57
4 58
4 60
4 61
4 62
4 64
4 67
4 68
4 69
4 70
4 71
4 73
4 74
4 75
4 76
4 77
4 78
4 79
4 80
4 81
4 83
4 84
4 88
5 6
5 7
5 8
5 9
5 10
5 11
5 13
5 14
5 15
5 17
5 19
5 20
5 22
5 26
5 28
5 29
5 30
5 31
5 32
5 34
5 35
5 37
5 39
5 40
5 42
5 43
5 45
5 48
5 50
5 55
5 56
5 60
5 61
5 63
5 65
5 66
5 68
5 72
5 74
5 76
5 77
5 78
5 81
5 85
5 86
5 87
5 88
6 7
6 8
6 9
6 13
6 17
6 18
6 21
6 26
6 30
6 31
6 32
6 33
6 34
6 35
6 36
6 38
6 39
6 40
6 42
6 43
6 44
6 46
6 48
6 49
6 51
6 54
6 57
6 62
6 64
6 65
6 66
6 67
6 68
6 69
6 70
6 71
6 73
6 75
6 76
6 78
6 81
6 82
6 83
6 86
6 87
6 89
7 11
7 17
7 18
7 19
7 24
7 25
7 29
7 30
7 31
7 32
7 35
7 38
7 39
7 40
7 41
7 42
7 43
7 44
7 47
7 48
7 49
7 50
7 51
7 52
7 53
7 54
7 57
7 60
7 61
7 63
7 64
7 65
7 66
7 68
7 69
7 72
7 73
7 74
7 75
7 79
7 81
7 83
7 85
7 86
7 88
8 9
8 11
8 12
8 15
8 19
8 22
8 24
8 25
8 26
8 29
8 30
8 31
8 32
8 34
8 35
8 36
8 38
8 39
8 41
8 43
8 47
8 48
8 50
8 54
8 56
8 58
8 59
8 60
8 64
8 65
8 66
8 69
8 72
8 73
8 74
8 75
8 76
8 78
8 79
8 81
8 83
8 84
8 85
8 89
9 10
9 11
9 12
9 13
9 16
9 19
9 21
9 23
9 27
9 28
9 30
9 34
9 37
9 39
9 40
9 41
9 42
9 43
9 44
9 45
9 47
9 48
9 50
9 52
9 56
9 58
9 60
9 61
9 62
9 63
9 65
9 66
9 67
9 69
9 70
9 71
9 75
9 76
9 79
9 80
9 82
9 83
10 11
10 12
10 13
10 14
10 15
10 16
10 17
10 20
10 21
10 22
10 26
10 27
10 30
10 32
10 33
10 34
10 35
10 39
10 40
10 41
10 43
10 44
10 45
10 46
10 49
10 51
10 52
10 53
10 55
10 58
10 59
10 60
10 61
10 63
10 64
10 65
10 68
10 69
10 70
10 72
10 74
10 75
10 76
10 77
10 82
10 83
10 84
10 85
10 86
10 88
10 89
11 14
11 15
11 18
11 19
11 21
11 22
11 23
11 24
11 25
11 26
11 27
11 29
11 30
11 31
11 35
11 36
11 37
11 40
11 41
11 42
11 43
11 45
11 50
11 54
11 55
11 58
11 59
11 61
11 62
11 64
11 65
11 66
11 68
11 70
11 73
11 75
11 80
11 85
11 88
12 14
12 17
12 18
12 20
12 22
12 23
12 28
12 29
12 30
12 32
12 33
12 34
12 35
12 36
12 37
12 38
12 39
12 40
12 41
12 43
12 44
12 48
12 50
12 51
12 52
12 53
12 55
12 56
12 58
12 60
12 61
12 62
12 63
12 64
12 65
12 66
12 69
12 72
12 73
12 74
12 75
12 77
12 79
12 82
12 83
12 84
12 85
12 86
12 89
13 14
13 17
13 18
13 20
13 21
13 22
13 26
13 27
13 28
13 29
13 32
13 37
13 38
13 39
13 42
13 45
13 46
13 47
13 48
13 50
13 53
13 54
13 55
13 57
13 60
13 61
13 62
13 63
13 65
13 66
13 67
13 68
13 69
13 72
13 73
13 75
13 77
13 78
13 81
13 84
13 85
13 87
13 89
14 18
14 19
14 20
14 21
14 22
14 23
14 26
14 27
14 30
14 32
14 33
14 34
14 35
14 36
14 37
14 38
14 39
14 41
14 44
14 45
14 48
14 50
14 52
14 56
14 57
14 60
14 61
14 62
14 63
14 66
14 67
14 70
14 71
14 72
14 75
14 76
14 79
14 80
14 81
14 82
14 84
14 85
14 88
14 89
15 16
15 17
15 18
15 21
15 22
15 23
15 24
15 25
15 28
15 29
15 32
15 33
15 34
15 35
15 40
15 41
15 42
15 44
15 46
15 50
15 51
15 53
15 54
15 55
15 57
15 58
15 59
15 61
15 62
15 63
15 66
15 67
15 68
15 70
15 72
15 73
15 75
15 76
15 78
15 80
15 81
15 82
15 85
15 88
16 17
16 19
16 20
16 21
16 22
16 24
16 28
16 29
16 31
16 32
16 34
16 36
16 38
16 41
16 43
16 44
16 48
16 49
16 50
16 54
16 55
16 56
16 57
16 58
16 59
16 60
16 63
16 64
16 67
16 68
16 69
16 70
16 71
16 72
16 73
16 74
16 75
16 76
16 77
16 78
16 79
16 80
16 81
16 84
16 86
16 87
16 88
16 89
17 18
17 19
17 20
17 21
17 22
17 23
17 26
17 28
17 29
17 30
17 31
17 34
17 35
17 36
17 37
17 38
17 39
17 40
17 47
17 48
17 50
17 54
17 55
17 56
17 57
17 60
17 62
17 65
17 68
17 71
17 72
17 73
17 74
17 75
17 76
17 77
17 78
17 79
17 81
17 82
17 86
17 87
17 88
18 19
18 26
18 28
18 29
18 31
18 33
18 34
18 36
18 37
18 38
18 40
18 41
18 43
18 44
18 45
18 46
18 47
18 48
18 49
18 50
18 51
18 53
18 54
18 55
18 59
18 60
18 63
18 64
18 65
18 66
18 67
18 68
18 69
18 71
18 73
18 78
18 79
18 81
18 82
18 83
18 84
18 85
18 87
18 89
19 20
19 22
19 24
19 26
19 29
19 30
19 31
19 33
19 34
19 35
19 36
19 37
19 38
19 39
19 40
19 41
19 45
19 47
19 48
19 49
19 50
19 51
19 53
19 54
19 55
19 56
19 57
19 58
19 63
19 65
19 67
19 68
19 70
19 71
19 72
19 73
19 75
19 77
19 78
19 79
19 82
19 83
19 86
19 87
19 88
20 21
20 24
20 25
20 27
20 28
20 29
20 30
20 31
20 32
20 35
20 37
20 38
20 41
20 47
20 48
20 50
20 51
20 54
20 56
20 58
20 60
20 61
20 63
20 64
20 65
20 66
20 67
20 68
20 69
20 70
20 72
20 75
20 76
20 79
20 80
20 81
20 82
20 83
20 86
21 22
21 23
21 24
21 25
21 29
21 30
21 31
21 32
21 33
21 34
21 35
21 37
21 38
21 39
21 41
21 42
21 44
21 45
21 46
21 48
21 49
21 51
21 52
21 54
21 55
21 57
21 58
21 59
21 60
21 61
21 63
21 64
21 65
21 66
21 67
21 68
21 69
21 71
21 75
21 77
21 78
21 79
21 80
21 83
21 85
21 86
21 87
22 26
22 27
22 28
22 29
22 30
22 31
22 35
22 36
22 37
22 42
22 45
22 46
22 48
22 51
22 54
22 56
22 59
22 61
22 62
22 63
22 64
22 66
22 67
22 69
22 71
22 74
22 75
22 77
22 78
22 79
22 80
22 81
22 82
22 83
22 84
22 85
22 86
22 87
22 88
22 89
23 26
23 27
23 28
23 29
23 30
23 32
23 34
23 35
23 36
23 39
23 40
23 41
23 42
23 44
23 45
23 47
23 48
23 49
23 52
23 56
23 57
23 58
23 59
23 61
23 62
23 64
23 68
23 70
23 71
23 72
23 73
23 75
23 76
23 77
23 78
23 79
23 80
23 81
23 82
23 83
23 84
23 85
23 86
23 87
23 88
23 89
24 26
24 27
24 28
24 29
24 32
24 34
24 35
24 36
24 37
24 39
24 40
24 41
24 42
24 43
24 47
24 48
24 50
24 51
24 52
24 54
24 55
24 56
24 57
24 58
24 59
24 63
24 64
24 68
24 70
24 71
24 72
24 73
24 75
24 78
24 79
24 80
24 82
24 84
24 85
24 86
24 87
24 88
24 89
25 26
25 27
25 28
25 29
25 33
25 34
25 36
25 37
25 38
25 39
25 40
25 42
25 43
25 44
25 45
25 46
25 48
25 49
25 50
25 55
25 56
25 57
25 59
25 62
25 64
25 67
25 70
25 71
25 73
25 74
25 75
25 77
25 82
25 83
25 84
25 85
25 87
25 88
26 27
26 30
26 32
26 36
26 38
26 39
26 40
26 41
26 42
26 44
26 45
26 46
26 47
26 51
26 54
26 55
26 57
26 58
26 59
26 60
26 62
26 66
26 67
26 68
26 70
26 71
26 72
26 73
26 75
26 77
26 79
26 80
26 81
26 82
26 87
26 88
27 28
27 29
27 31
27 33
27 35
27 37
27 39
27 40
27 41
27 42
27 44
27 45
27 46
27 47
27 52
27 53
27 54
27 55
27 56
27 57
27 58
27 59
27 61
27 62
27 64
27 65
27 66
27 67
27 68
27 69
27 71
27 75
27 76
27 77
27 78
27 79
27 80
27 82
27 84
27 85
27 86
27 88
28 32
28 33
28 36
28 38
28 41
28 43
28 44
28 47
28 48
28 54
28 56
28 60
28 61
28 62
28 63
28 65
28 70
28 71
28 72
28 73
28 74
28 75
28 76
28 78
28 79
28 81
28 82
28 84
28 85
28 89
29 31
29 32
29 33
29 34
29 35
29 37
29 38
29 40
29 42
29 43
29 44
29 45
29 47
29 49
29 50
29 51
29 52
29 53
29 55
29 56
29 57
29 62
29 63
29 64
29 65
29 68
29 69
29 70
29 71
29 72
29 73
29 75
29 76
29 81
29 83
29 85
29 86
29 87
30 32
30 33
30 35
30 36
30 37
30 38
30 39
30 44
30 45
30 47
30 48
30 49
30 55
30 58
30 59
30 60
30 61
30 63
30 64
30 65
30 69
30 70
30 72
30 76
30 78
30 79
30 80
30 82
30 83
30 84
30 86
30 89
31 32
31 33
31 34
31 35
31 36
31 38
31 39
31 42
31 43
31 44
31 46
31 47
31 48
31 49
31 52
31 54
31 56
31 57
31 58
31 60
31 61
31 63
31 64
31 66
31 68
31 70
31 71
31 72
31 73
31 74
31 77
31 78
31 80
31 81
31 83
31 84
31 85
31 86
31 87
31 88
31 89
32 34
32 37
32 38
32 39
32 41
32 42
32 44
32 46
32 47
32 48
32 49
32 50
32 54
32 55
32 56
32 57
32 59
32 61
32 62
32 63
32 64
32 65
32 66
32 67
32 68
32 69
32 70
32 71
32 73
32 74
32 75
32 77
32 79
32 81
32 85
32 86
32 87
32 89
33 34
33 35
33 36
33 37
33 38
33 49
33 53
33 54
33 57
33 58
33 60
33 61
33 62
33 65
33 66
33 67
33 68
33 70
33 71
33 73
33 74
33 77
33 78
33 79
33 81
33 82
33 83
33 85
33 89
34 35
34 39
34 40
34 42
34 43
34 44
34 46
34 47
34 48
34 49
34 54
34 55
34 57
34 58
34 60
34 62
34 64
34 65
34 66
34 67
34 68
34 69
34 72
34 73
34 74
34 79
34 81
34 83
34 84
34 85
34 86
34 87
34 89
35 37
35 38
35 39
35 40
35 41
35 42
35 43
35 44
35 45
35 47
35 48
35 49
35 50
35 51
35 52
35 53
35 54
35 57
35 58
35 59
35 60
35 63
35 64
35 67
35 68
35 69
35 70
35 73
35 75
35 76
35 77
35 82
35 84
35 85
35 86
35 87
36 37
36 38
36 39
36 40
36 41
36 43
36 44
36 45
36 46
36 54
36 55
36 56
36 60
36 61
36 62
36 63
36 64
36 65
36 67
36 68
36 69
36 70
36 73
36 74
36 75
36 76
36 77
36 78
36 79
36 81
36 82
36 83
36 87
36 88
37 38
37 40
37 41
37 43
37 44
37 47
37 48
37 52
37 54
37 55
37 58
37 60
37 61
37 63
37 64
37 67
37 70
37 71
37 72
37 76
37 77
37 81
37 83
37 85
37 86
37 87
37 88
38 39
38 40
38 42
38 45
38 46
38 49
38 50
38 52
38 54
38 55
38 56
38 58
38 59
38 60
38 62
38 63
38 64
38 66
38 67
38 68
38 69
38 70
38 71
38 72
38 74
38 75
38 79
38 81
38 82
38 83
38 84
38 86
38 87
38 88
39 40
39 41
39 43
39 45
39 46
39 48
39 50
39 53
39 54
39 55
39 56
39 58
39 61
39 63
39 65
39 67
39 68
39 70
39 71
39 72
39 75
39 80
39 83
39 85
39 86
39 87
39 88
40 41
40 44
40 45
40 46
40 47
40 50
40 51
40 52
40 53
40 54
40 55
40 57
40 58
40 60
40 61
40 62
40 63
40 64
40 65
40 66
40 69
40 70
40 71
40 73
40 75
40 77
40 81
40 82
40 83
40 85
40 89
41 42
41 44
41 46
41 49
41 50
41 53
41 54
41 55
41 57
41 58
41 59
41 60
41 65
41 67
41 68
41 69
41 70
41 71
41 74
41 75
41 76
41 79
41 80
41 83
41 84
41 86
41 87
41 88
41 89
42 44
42 45
42 46
42 48
42 50
42 51
42 53
42 54
42 55
42 56
42 57
42 59
42 60
42 62
42 63
42 65
42 66
42 67
42 68
42 69
42 71
42 73
42 75
42 76
42 78
42 79
42 82
42 85
42 86
42 87
42 88
43 45
43 46
43 47
43 48
43 50
43 51
43 56
43 58
43 61
43 63
43 64
43 65
43 69
43 71
43 72
43 73
43 75
43 77
43 78
43 80
43 81
43 83
43 85
43 87
43 88
43 89
44 48
44 49
44 51
44 54
44 56
44 59
44 60
44 62
44 64
44 65
44 67
44 68
44 69
44 75
44 76
44 78
44 80
44 81
44 82
44 84
44 85
44 88
44 89
45 46
45 47
45 50
45 52
45 53
45 55
45 56
45 58
45 59
45 60
45 61
45 62
45 64
45 67
45 69
45 70
45 71
45 72
45 74
45 76
45 77
45 79
45 80
45 82
45 83
45 88
45 89
46 47
46 49
46 51
46 53
46 54
46 55
46 56
46 58
46 59
46 61
46 62
46 64
46 65
46 66
46 67
46 69
46 70
46 72
46 73
46 74
46 75
46 76
46 77
46 78
46 79
46 80
46 82
46 84
46 87
47 48
47 49
47 50
47 51
47 52
47 54
47 55
47 60
47 61
47 63
47 64
47 66
47 67
47 68
47 69
47 70
47 72
47 74
47 75
47 76
47 78
47 79
47 80
47 81
47 82
47 83
47 84
47 85
47 86
47 87
47 89
48 51
48 52
48 56
48 57
48 60
48 63
48 64
48 65
48 67
48 68
48 70
48 73
48 74
48 76
48 79
48 82
48 83
48 84
48 87
48 88
48 89
49 51
49 52
49 53
49 55
49 56
49 57
49 58
49 59
49 62
49 65
49 66
49 68
49 72
49 73
49 76
49 79
49 80
49 82
49 83
49 85
49 88
49 89
50 53
50 54
50 55
50 56
50 57
50 58
50 59
50 62
50 64
50 68
50 71
50 72
50 74
50 78
50 87
50 88
50 89
51 53
51 54
51 56
51 57
51 59
51 60
51 61
51 64
51 65
51 67
51 68
51 69
51 70
51 71
51 73
51 75
51 77
51 80
51 82
51 83
51 84
51 85
51 86
51 88
51 89
52 53
52 55
52 57
52 60
52 61
52 63
52 65
52 68
52 69
52 70
52 71
52 73
52 75
52 78
52 80
52 81
52 83
52 85
52 86
52 87
52 89
53 54
53 56
53 57
53 60
53 62
53 63
53 65
53 67
53 68
53 69
53 70
53 72
53 74
53 76
53 81
53 83
53 84
53 85
53 86
53 87
54 55
54 56
54 59
54 61
54 62
54 63
54 65
54 67
54 69
54 70
54 71
54 73
54 74
54 78
54 79
54 80
54 81
54 82
54 83
54 85
54 86
54 89
55 57
55 58
55 59
55 60
55 61
55 62
55 63
55 65
55 67
55 69
55 71
55 72
55 73
55 77
55 82
55 84
55 85
55 86
55 89
56 58
56 59
56 60
56 61
56 64
56 66
56 67
56 69
56 70
56 72
56 73
56 74
56 76
56 77
56 78
56 79
56 81
56 83
56 84
56 85
56 86
56 88
57 58
57 59
57 60
57 62
57 63
57 64
57 66
57 67
57 69
57 70
57 72
57 73
57 76
57 77
57 78
57 79
57 80
57 81
57 82
57 83
57 84
57 86
57 87
57 89
58 60
58 61
58 62
58 63
58 64
58 66
58 67
58 70
58 73
58 75
58 76
58 79
58 81
58 82
58 83
58 84
58 85
58 86
58 87
58 88
58 89
59 60
59 61
59 65
59 70
59 71
59 75
59 76
59 78
59 79
59 81
59 83
59 88
59 89
60 61
60 62
60 63
60 64
60 65
60 67
60 69
60 72
60 75
60 78
60 79
60 80
60 81
60 82
60 83
60 87
60 89
61 62
61 64
61 65
61 67
61 68
61 75
61 76
61 78
61 79
61 83
61 84
61 85
61 86
61 87
61 89
62 63
62 65
62 67
62 68
62 69
62 70
62 72
62 73
62 74
62 75
62 76
62 77
62 78
62 80
62 82
62 83
62 84
62 85
62 86
62 88
62 89
63 64
63 65
63 66
63 67
63 68
63 69
63 70
63 71
63 75
63 76
63 77
63 80
63 84
63 85
63 87
64 67
64 69
64 74
64 79
64 80
64 81
64 82
64 84
64 85
64 86
64 87
64 88
65 66
65 67
65 71
65 74
65 75
65 76
65 78
65 79
65 80
65 81
65 82
65 85
65 86
65 89
66 67
66 70
66 72
66 74
66 75
66 76
66 78
66 80
66 81
66 84
66 85
67 68
67 70
67 72
67 74
67 79
67 80
67 82
67 83
67 84
67 85
67 86
67 87
67 88
67 89
68 70
68 72
68 76
68 77
68 78
68 80
68 82
68 83
68 84
68 85
68 86
68 87
68 88
68 89
69 70
69 71
69 72
69 73
69 74
69 78
69 79
69 80
69 81
69 82
69 83
69 84
69 88
69 89
70 72
70 73
70 74
70 76
70 77
70 78
70 80
70 84
70 85
70 86
70 88
71 72
71 73
71 75
71 76
71 78
71 80
71 82
71 83
71 84
71 85
71 86
71 87
71 89
72 75
72 81
72 82
72 83
72 84
72 86
72 87
72 88
72 89
73 74
73 75
73 76
73 77
73 79
73 80
73 81
73 82
73 83
73 84
73 85
73 86
73 87
74 75
74 76
74 81
74 82
74 84
74 85
74 86
74 87
74 89
75 77
75 78
75 82
75 83
75 84
75 85
75 86
75 88
76 78
76 79
76 80
76 82
76 84
76 85
76 87
76 88
76 89
77 79
77 81
77 83
77 85
77 87
77 88
77 89
78 81
78 82
78 83
78 84
78 85
78 87
78 89
79 81
79 82
79 83
79 85
79 86
79 87
79 88
79 89
80 82
80 87
80 88
80 89
81 82
81 85
81 86
81 87
81 88
82 83
82 84
82 86
82 87
82 88
82 89
83 86
83 87
83 88
84 85
84 86
84 88
84 89
85 86
85 87
85 89
86 87
86 88
86 89
87 89
14 51 59 87 69 2 62 21 83 20 5 68 54 60 33 34 3 75 56 25 43 82
72 19 77 31 50 35 49 22 45 39 9 1 47 52 81 4 8 79 23 46 37 30
6 28 17 55 88 13 41 74 15 66 27 67 71 64 10 18 85 7 36 44 70 61
40 29 57 73 16 53 48 26 80 58 12 89 42 65 0 11 86 32 24 76 63 78
38 84
